VALUE 4207
2 123
3 624
4 305
5 446
6 503
7 466
8 394
9 299
123 145
139 553
145 356
166 350
237 371
252 503
135 299
160 356
1 369
389 542
138 394
398 466
446 610
93 466
6 503
252 520
166 533
309 542
139 553
395 584
602 610
533 615
3 624

